bcc
3.6
0.5 0.5 -0.5
0.5 -0.5 0.5
-0.5 0.5 0.5
1
Direct
0.000000 0.000000 0.000000