Pt-Ag
3.92
0.5 0.5 0.0
0.5 0.0 0.5
0.0 0.5 0.5
1 0
D
0.0 0.0 0.0
